6
Time limit set to 60 seconds
Running CP solver
/home/omastto1/General-Optimization-Solver/src/solvers/mmrcpsp.py:42(stream:108:6): Warning: Cumulative expression 'pulse': height is zero, expression is zero everywhere.
                                                                                               VarCumulAtom_149 = pulse(task_0_mode_0, 0)
/home/omastto1/General-Optimization-Solver/src/solvers/mmrcpsp.py:42(stream:108:1255): Warning: Cumulative expression 'pulse': height is zero, expression is zero everywhere.
                                                                                                  VarCumulAtom_198 = pulse(task_17_mode_0, 0)
/home/omastto1/General-Optimization-Solver/src/solvers/mmrcpsp.py:42(stream:109:6): Warning: Cumulative expression 'pulse': height is zero, expression is zero everywhere.
                                                                                               VarCumulAtom_202 = pulse(task_0_mode_0, 0)
/home/omastto1/General-Optimization-Solver/src/solvers/mmrcpsp.py:42(stream:109:1259): Warning: Cumulative expression 'pulse': height is zero, expression is zero everywhere.
                                                                                                  VarCumulAtom_251 = pulse(task_17_mode_0, 0)
 ! --------------------------------------------------- CP Optimizer 20.1.0.0 --
 ! Minimization problem - 69 variables, 51 constraints
 ! TimeLimit            = 60
 ! Workers              = 14
 ! LogVerbosity         = Terse
 ! Initial process time : 0.01s (0.01s extraction + 0.00s propagation)
 !  . Log search space  : 154.5 (before), 154.5 (after)
 !  . Memory usage      : 754.6 kB (before), 754.6 kB (after)
 ! Using parallel search with 14 workers.
 ! ----------------------------------------------------------------------------
 !          Best Branches  Non-fixed    W       Branch decision
                        0         69                 -
 + New bound is 39
 ! Using iterative diving.
 ! Using temporal relaxation.
 *            49       45  0.37s        1      (gap is 20.41%)
 *            46      100  0.37s        1      (gap is 15.22%)
 *            44      152  0.37s        1      (gap is 11.36%)
 *            43      222  0.37s        1      (gap is 9.30%)
 *            40      272  0.37s        1      (gap is 2.50%)
 *            39      697  0.37s        1      (gap is 0.00%)
 ! ----------------------------------------------------------------------------
 ! Search completed, 6 solutions found.
 ! Best objective         : 39 (optimal - effective tol. is 0)
 ! Best bound             : 39
 ! ----------------------------------------------------------------------------
 ! Number of branches     : 58149
 ! Number of fails        : 2899
 ! Total memory usage     : 9.7 MB (9.6 MB CP Optimizer + 0.1 MB Concert)
 ! Time spent in solve    : 0.38s (0.38s engine + 0.01s extraction)
 ! Search speed (br. / s) : 157159.5
 ! ----------------------------------------------------------------------------
task_0: (start=0, end=0, size=0, length=0)
Task 0 is scheduled in mode 0 from 0 to 0
task_1: (start=0, end=8, size=8, length=8)
Task 1 is scheduled in mode 2 from 0 to 8
task_2: (start=0, end=3, size=3, length=3)
Task 2 is scheduled in mode 0 from 0 to 3
task_3: (start=0, end=2, size=2, length=2)
Task 3 is scheduled in mode 1 from 0 to 2
task_4: (start=3, end=8, size=5, length=5)
Task 4 is scheduled in mode 1 from 3 to 8
task_5: (start=8, end=13, size=5, length=5)
Task 5 is scheduled in mode 0 from 8 to 13
task_6: (start=13, end=20, size=7, length=7)
Task 6 is scheduled in mode 2 from 13 to 20
task_7: (start=13, end=20, size=7, length=7)
Task 7 is scheduled in mode 2 from 13 to 20
task_8: (start=20, end=26, size=6, length=6)
Task 8 is scheduled in mode 2 from 20 to 26
task_9: (start=13, end=23, size=10, length=10)
Task 9 is scheduled in mode 2 from 13 to 23
task_10: (start=20, end=23, size=3, length=3)
Task 10 is scheduled in mode 0 from 20 to 23
task_11: (start=8, end=14, size=6, length=6)
Task 11 is scheduled in mode 1 from 8 to 14
task_12: (start=20, end=29, size=9, length=9)
Task 12 is scheduled in mode 2 from 20 to 29
task_13: (start=23, end=29, size=6, length=6)
Task 13 is scheduled in mode 2 from 23 to 29
task_14: (start=29, end=37, size=8, length=8)
Task 14 is scheduled in mode 2 from 29 to 37
task_15: (start=29, end=33, size=4, length=4)
Task 15 is scheduled in mode 1 from 29 to 33
task_16: (start=29, end=39, size=10, length=10)
Task 16 is scheduled in mode 2 from 29 to 39
task_17: (start=39, end=39, size=0, length=0)
Task 17 is scheduled in mode 0 from 39 to 39
Optimal solution found
Objective value: 39
Solution is optimal.
